objective value:                                 4838
x1793                                               1 	(obj:84)
x1981                                               1 	(obj:1162)
x7549                                               1 	(obj:1914)
x21052                                              1 	(obj:676)
x28515                                              1 	(obj:716)
x76918                                              1 	(obj:286)
